p tw 169 30421 2 
1 3 
1 4 
1 5 
1 6 
1 7 
1 8 
1 9 
1 10 
1 11 
1 12 
1 13 
1 14 
1 24 
1 27 
1 38 
1 40 
1 48 
1 53 
1 62 
1 66 
1 78 
1 79 
1 86 
1 92 
1 98 
1 105 
1 110 
1 118 
1 122 
1 131 
1 134 
1 144 
1 146 
1 157 
1 158 
2 3 
2 4 
2 5 
2 6 
2 7 
2 8 
2 9 
2 10 
2 11 
2 12 
2 13 
2 15 
2 23 
2 28 
2 31 
2 41 
2 50 
2 54 
2 58 
2 67 
2 69 
2 79 
2 80 
2 93 
2 104 
2 106 
2 116 
2 119 
2 120 
2 132 
2 139 
2 145 
2 150 
2 158 
2 164 
3 4 
3 5 
3 6 
3 7 
3 8 
3 9 
3 10 
3 11 
3 12 
3 13 
3 16 
3 21 
3 29 
3 37 
3 42 
3 49 
3 55 
3 65 
3 68 
3 77 
3 81 
3 85 
3 94 
3 96 
3 107 
3 113 
3 120 
3 121 
3 132 
3 133 
3 144 
3 146 
3 159 
3 162 
4 5 
4 6 
4 7 
4 8 
4 9 
4 10 
4 11 
4 12 
4 13 
4 17 
4 26 
4 30 
4 33 
4 43 
4 45 
4 56 
4 61 
4 67 
4 69 
4 82 
4 89 
4 95 
4 99 
4 108 
4 114 
4 121 
4 129 
4 133 
4 134 
4 147 
4 148 
4 157 
4 160 
5 6 
5 7 
5 8 
5 9 
5 10 
5 11 
5 12 
5 13 
5 17 
5 18 
5 29 
5 31 
5 44 
5 46 
5 53 
5 57 
5 70 
5 71 
5 83 
5 91 
5 96 
5 102 
5 106 
5 109 
5 122 
5 126 
5 135 
5 138 
5 148 
5 155 
5 161 
5 166 
6 7 
6 8 
6 9 
6 10 
6 11 
6 12 
6 13 
6 16 
6 19 
6 30 
6 32 
6 45 
6 52 
6 54 
6 58 
6 71 
6 73 
6 83 
6 84 
6 97 
6 103 
6 105 
6 110 
6 123 
6 127 
6 136 
6 141 
6 149 
6 152 
6 162 
6 163 
7 8 
7 9 
7 10 
7 11 
7 12 
7 13 
7 18 
7 20 
7 33 
7 34 
7 46 
7 51 
7 55 
7 59 
7 72 
7 75 
7 82 
7 85 
7 97 
7 98 
7 111 
7 115 
7 118 
7 124 
7 137 
7 143 
7 145 
7 150 
7 163 
7 165 
8 9 
8 10 
8 11 
8 12 
8 13 
8 19 
8 21 
8 28 
8 34 
8 42 
8 47 
8 60 
8 64 
8 70 
8 73 
8 86 
8 88 
8 99 
8 100 
8 112 
8 117 
8 124 
8 125 
8 131 
8 138 
8 151 
8 154 
8 160 
8 164 
9 10 
9 11 
9 12 
9 13 
9 20 
9 22 
9 32 
9 35 
9 44 
9 48 
9 61 
9 63 
9 68 
9 74 
9 80 
9 87 
9 92 
9 100 
9 112 
9 113 
9 126 
9 130 
9 139 
9 140 
9 147 
9 152 
9 165 
9 168 
10 11 
10 12 
10 13 
10 23 
10 25 
10 27 
10 36 
10 43 
10 49 
10 59 
10 62 
10 74 
10 75 
10 81 
10 88 
10 93 
10 101 
10 109 
10 114 
10 125 
10 127 
10 136 
10 140 
10 153 
10 156 
10 166 
10 167 
11 12 
11 13 
11 22 
11 24 
11 36 
11 37 
11 47 
11 50 
11 57 
11 63 
11 66 
11 76 
11 89 
11 90 
11 95 
11 102 
11 107 
11 115 
11 119 
11 128 
11 137 
11 141 
11 149 
11 154 
11 167 
11 169 
12 13 
12 14 
12 25 
12 38 
12 39 
12 41 
12 51 
12 56 
12 64 
12 76 
12 77 
12 87 
12 90 
12 101 
12 103 
12 111 
12 116 
12 123 
12 129 
12 135 
12 142 
12 151 
12 155 
12 159 
12 168 
13 15 
13 26 
13 35 
13 39 
13 40 
13 52 
13 60 
13 65 
13 72 
13 78 
13 84 
13 91 
13 94 
13 104 
13 108 
13 117 
13 128 
13 130 
13 142 
13 143 
13 153 
13 156 
13 161 
13 169 
14 15 
14 16 
14 17 
14 18 
14 19 
14 20 
14 21 
14 22 
14 23 
14 24 
14 25 
14 26 
14 27 
14 39 
14 40 
14 41 
14 53 
14 56 
14 66 
14 76 
14 79 
14 87 
14 92 
14 101 
14 105 
14 111 
14 118 
14 123 
14 131 
14 135 
14 144 
14 151 
14 157 
14 159 
15 16 
15 17 
15 18 
15 19 
15 20 
15 21 
15 22 
15 23 
15 24 
15 25 
15 26 
15 28 
15 35 
15 40 
15 41 
15 54 
15 60 
15 67 
15 72 
15 80 
15 84 
15 93 
15 94 
15 106 
15 108 
15 119 
15 128 
15 132 
15 142 
15 145 
15 153 
15 158 
15 161 
16 17 
16 18 
16 19 
16 20 
16 21 
16 22 
16 23 
16 24 
16 25 
16 26 
16 29 
16 30 
16 42 
16 52 
16 54 
16 55 
16 68 
16 73 
16 81 
16 83 
16 94 
16 103 
16 105 
16 107 
16 120 
16 127 
16 133 
16 141 
16 146 
16 152 
16 159 
16 163 
17 18 
17 19 
17 20 
17 21 
17 22 
17 23 
17 24 
17 25 
17 26 
17 29 
17 30 
17 43 
17 46 
17 53 
17 56 
17 69 
17 71 
17 82 
17 91 
17 95 
17 102 
17 106 
17 108 
17 121 
17 126 
17 134 
17 138 
17 147 
17 155 
17 160 
17 166 
18 19 
18 20 
18 21 
18 22 
18 23 
18 24 
18 25 
18 26 
18 31 
18 34 
18 44 
18 51 
18 55 
18 57 
18 70 
18 75 
18 82 
18 83 
18 96 
18 97 
18 109 
18 115 
18 118 
18 122 
18 135 
18 143 
18 145 
18 148 
18 161 
18 165 
19 20 
19 21 
19 22 
19 23 
19 24 
19 25 
19 26 
19 28 
19 32 
19 42 
19 45 
19 58 
19 64 
19 70 
19 71 
19 84 
19 88 
19 97 
19 100 
19 110 
19 117 
19 123 
19 124 
19 131 
19 136 
19 149 
19 154 
19 160 
19 162 
20 21 
20 22 
20 23 
20 24 
20 25 
20 26 
20 32 
20 33 
20 44 
20 46 
20 59 
20 63 
20 68 
20 72 
20 80 
20 85 
20 92 
20 98 
20 111 
20 112 
20 124 
20 130 
20 137 
20 140 
20 147 
20 150 
20 163 
20 168 
21 22 
21 23 
21 24 
21 25 
21 26 
21 34 
21 37 
21 47 
21 49 
21 60 
21 65 
21 73 
21 77 
21 85 
21 86 
21 96 
21 99 
21 112 
21 113 
21 121 
21 125 
21 132 
21 138 
21 144 
21 151 
21 162 
21 164 
22 23 
22 24 
22 25 
22 26 
22 35 
22 36 
22 47 
22 48 
22 57 
22 61 
22 66 
22 74 
22 87 
22 90 
22 95 
22 100 
22 107 
22 113 
22 119 
22 126 
22 137 
22 139 
22 149 
22 152 
22 165 
22 169 
23 24 
23 25 
23 26 
23 31 
23 36 
23 49 
23 50 
23 58 
23 62 
23 69 
23 75 
23 79 
23 88 
23 101 
23 104 
23 114 
23 116 
23 120 
23 127 
23 139 
23 140 
23 150 
23 153 
23 164 
23 166 
24 25 
24 26 
24 37 
24 38 
24 48 
24 50 
24 62 
24 63 
24 76 
24 78 
24 86 
24 89 
24 98 
24 102 
24 110 
24 115 
24 122 
24 128 
24 134 
24 141 
24 146 
24 154 
24 158 
24 167 
25 26 
25 27 
25 38 
25 43 
25 51 
25 59 
25 64 
25 74 
25 77 
25 81 
25 90 
25 93 
25 103 
25 109 
25 116 
25 125 
25 129 
25 136 
25 142 
25 155 
25 156 
25 167 
25 168 
26 33 
26 39 
26 45 
26 52 
26 61 
26 65 
26 67 
26 78 
26 89 
26 91 
26 99 
26 104 
26 114 
26 117 
26 129 
26 130 
26 133 
26 143 
26 148 
26 156 
26 157 
26 169 
27 28 
27 29 
27 30 
27 31 
27 32 
27 33 
27 34 
27 35 
27 36 
27 37 
27 38 
27 39 
27 40 
27 43 
27 53 
27 59 
27 66 
27 74 
27 79 
27 81 
27 92 
27 93 
27 105 
27 109 
27 118 
27 125 
27 131 
27 136 
27 144 
27 156 
27 157 
27 167 
28 29 
28 30 
28 31 
28 32 
28 33 
28 34 
28 35 
28 36 
28 37 
28 38 
28 39 
28 41 
28 42 
28 54 
28 64 
28 67 
28 70 
28 80 
28 88 
28 93 
28 100 
28 106 
28 117 
28 119 
28 124 
28 131 
28 132 
28 145 
28 154 
28 158 
28 160 
29 30 
29 31 
29 32 
29 33 
29 34 
29 35 
29 36 
29 37 
29 38 
29 39 
29 42 
29 46 
29 53 
29 55 
29 68 
29 71 
29 81 
29 91 
29 94 
29 102 
29 106 
29 107 
29 120 
29 126 
29 133 
29 138 
29 146 
29 155 
29 159 
29 166 
30 31 
30 32 
30 33 
30 34 
30 35 
30 36 
30 37 
30 38 
30 39 
30 43 
30 52 
30 54 
30 56 
30 69 
30 73 
30 82 
30 83 
30 95 
30 103 
30 105 
30 108 
30 121 
30 127 
30 134 
30 141 
30 147 
30 152 
30 160 
30 163 
31 32 
31 33 
31 34 
31 35 
31 36 
31 37 
31 38 
31 39 
31 44 
31 50 
31 57 
31 58 
31 69 
31 70 
31 79 
31 83 
31 96 
31 104 
31 109 
31 116 
31 120 
31 122 
31 135 
31 139 
31 148 
31 150 
31 161 
31 164 
32 33 
32 34 
32 35 
32 36 
32 37 
32 38 
32 39 
32 44 
32 45 
32 58 
32 63 
32 68 
32 71 
32 80 
32 84 
32 92 
32 97 
32 110 
32 112 
32 123 
32 130 
32 136 
32 140 
32 147 
32 149 
32 162 
32 168 
33 34 
33 35 
33 36 
33 37 
33 38 
33 39 
33 45 
33 46 
33 59 
33 61 
33 67 
33 72 
33 85 
33 89 
33 98 
33 99 
33 111 
33 114 
33 124 
33 129 
33 133 
33 137 
33 148 
33 150 
33 157 
33 163 
34 35 
34 36 
34 37 
34 38 
34 39 
34 47 
34 51 
34 55 
34 60 
34 73 
34 75 
34 82 
34 86 
34 97 
34 99 
34 112 
34 115 
34 118 
34 125 
34 138 
34 143 
34 145 
34 151 
34 164 
34 165 
35 36 
35 37 
35 38 
35 39 
35 40 
35 48 
35 60 
35 61 
35 72 
35 74 
35 84 
35 87 
35 94 
35 100 
35 108 
35 113 
35 126 
35 128 
35 139 
35 142 
35 152 
35 153 
35 161 
35 165 
36 37 
36 38 
36 39 
36 47 
36 49 
36 57 
36 62 
36 66 
36 75 
36 88 
36 90 
36 95 
36 101 
36 107 
36 114 
36 119 
36 127 
36 137 
36 140 
36 149 
36 153 
36 166 
36 169 
37 38 
37 39 
37 49 
37 50 
37 63 
37 65 
37 76 
37 77 
37 85 
37 89 
37 96 
37 102 
37 113 
37 115 
37 121 
37 128 
37 132 
37 141 
37 144 
37 154 
37 162 
37 167 
38 39 
38 48 
38 51 
38 62 
38 64 
38 77 
38 78 
38 86 
38 90 
38 98 
38 103 
38 110 
38 116 
38 122 
38 129 
38 134 
38 142 
38 146 
38 155 
38 158 
38 168 
39 41 
39 52 
39 56 
39 65 
39 76 
39 78 
39 87 
39 91 
39 101 
39 104 
39 111 
39 117 
39 123 
39 130 
39 135 
39 143 
39 151 
39 156 
39 159 
39 169 
40 41 
40 42 
40 43 
40 44 
40 45 
40 46 
40 47 
40 48 
40 49 
40 50 
40 51 
40 52 
40 53 
40 60 
40 66 
40 72 
40 79 
40 84 
40 92 
40 94 
40 105 
40 108 
40 118 
40 128 
40 131 
40 142 
40 144 
40 153 
40 157 
40 161 
41 42 
41 43 
41 44 
41 45 
41 46 
41 47 
41 48 
41 49 
41 50 
41 51 
41 52 
41 54 
41 56 
41 67 
41 76 
41 80 
41 87 
41 93 
41 101 
41 106 
41 111 
41 119 
41 123 
41 132 
41 135 
41 145 
41 151 
41 158 
41 159 
42 43 
42 44 
42 45 
42 46 
42 47 
42 48 
42 49 
42 50 
42 51 
42 52 
42 55 
42 64 
42 68 
42 70 
42 81 
42 88 
42 94 
42 100 
42 107 
42 117 
42 120 
42 124 
42 131 
42 133 
42 146 
42 154 
42 159 
42 160 
43 44 
43 45 
43 46 
43 47 
43 48 
43 49 
43 50 
43 51 
43 52 
43 56 
43 59 
43 69 
43 74 
43 81 
43 82 
43 93 
43 95 
43 108 
43 109 
43 121 
43 125 
43 134 
43 136 
43 147 
43 156 
43 160 
43 167 
44 45 
44 46 
44 47 
44 48 
44 49 
44 50 
44 51 
44 52 
44 57 
44 63 
44 68 
44 70 
44 80 
44 83 
44 92 
44 96 
44 109 
44 112 
44 122 
44 130 
44 135 
44 140 
44 147 
44 148 
44 161 
44 168 
45 46 
45 47 
45 48 
45 49 
45 50 
45 51 
45 52 
45 58 
45 61 
45 67 
45 71 
45 84 
45 89 
45 97 
45 99 
45 110 
45 114 
45 123 
45 129 
45 133 
45 136 
45 148 
45 149 
45 157 
45 162 
46 47 
46 48 
46 49 
46 50 
46 51 
46 52 
46 53 
46 59 
46 71 
46 72 
46 85 
46 91 
46 98 
46 102 
46 106 
46 111 
46 124 
46 126 
46 137 
46 138 
46 150 
46 155 
46 163 
46 166 
47 48 
47 49 
47 50 
47 51 
47 52 
47 57 
47 60 
47 66 
47 73 
47 86 
47 90 
47 95 
47 99 
47 107 
47 112 
47 119 
47 125 
47 137 
47 138 
47 149 
47 151 
47 164 
47 169 
48 49 
48 50 
48 51 
48 52 
48 61 
48 62 
48 74 
48 78 
48 86 
48 87 
48 98 
48 100 
48 110 
48 113 
48 122 
48 126 
48 134 
48 139 
48 146 
48 152 
48 158 
48 165 
49 50 
49 51 
49 52 
49 62 
49 65 
49 75 
49 77 
49 85 
49 88 
49 96 
49 101 
49 113 
49 114 
49 121 
49 127 
49 132 
49 140 
49 144 
49 153 
49 162 
49 166 
50 51 
50 52 
50 58 
50 63 
50 69 
50 76 
50 79 
50 89 
50 102 
50 104 
50 115 
50 116 
50 120 
50 128 
50 139 
50 141 
50 150 
50 154 
50 164 
50 167 
51 52 
51 55 
51 64 
51 75 
51 77 
51 82 
51 90 
51 97 
51 103 
51 115 
51 116 
51 118 
51 129 
51 142 
51 143 
51 145 
51 155 
51 165 
51 168 
52 54 
52 65 
52 73 
52 78 
52 83 
52 91 
52 103 
52 104 
52 105 
52 117 
52 127 
52 130 
52 141 
52 143 
52 152 
52 156 
52 163 
52 169 
53 54 
53 55 
53 56 
53 57 
53 58 
53 59 
53 60 
53 61 
53 62 
53 63 
53 64 
53 65 
53 66 
53 71 
53 79 
53 91 
53 92 
53 102 
53 105 
53 106 
53 118 
53 126 
53 131 
53 138 
53 144 
53 155 
53 157 
53 166 
54 55 
54 56 
54 57 
54 58 
54 59 
54 60 
54 61 
54 62 
54 63 
54 64 
54 65 
54 67 
54 73 
54 80 
54 83 
54 93 
54 103 
54 105 
54 106 
54 119 
54 127 
54 132 
54 141 
54 145 
54 152 
54 158 
54 163 
55 56 
55 57 
55 58 
55 59 
55 60 
55 61 
55 62 
55 63 
55 64 
55 65 
55 68 
55 75 
55 81 
55 82 
55 94 
55 97 
55 107 
55 115 
55 118 
55 120 
55 133 
55 143 
55 145 
55 146 
55 159 
55 165 
56 57 
56 58 
56 59 
56 60 
56 61 
56 62 
56 63 
56 64 
56 65 
56 69 
56 76 
56 82 
56 87 
56 95 
56 101 
56 108 
56 111 
56 121 
56 123 
56 134 
56 135 
56 147 
56 151 
56 159 
56 160 
57 58 
57 59 
57 60 
57 61 
57 62 
57 63 
57 64 
57 65 
57 66 
57 70 
57 83 
57 90 
57 95 
57 96 
57 107 
57 109 
57 119 
57 122 
57 135 
57 137 
57 148 
57 149 
57 161 
57 169 
58 59 
58 60 
58 61 
58 62 
58 63 
58 64 
58 65 
58 69 
58 71 
58 79 
58 84 
58 97 
58 104 
58 110 
58 116 
58 120 
58 123 
58 136 
58 139 
58 149 
58 150 
58 162 
58 164 
59 60 
59 61 
59 62 
59 63 
59 64 
59 65 
59 72 
59 74 
59 81 
59 85 
59 93 
59 98 
59 109 
59 111 
59 124 
59 125 
59 136 
59 137 
59 150 
59 156 
59 163 
59 167 
60 61 
60 62 
60 63 
60 64 
60 65 
60 72 
60 73 
60 84 
60 86 
60 94 
60 99 
60 108 
60 112 
60 125 
60 128 
60 138 
60 142 
60 151 
60 153 
60 161 
60 164 
61 62 
61 63 
61 64 
61 65 
61 67 
61 74 
61 87 
61 89 
61 99 
61 100 
61 113 
61 114 
61 126 
61 129 
61 133 
61 139 
61 148 
61 152 
61 157 
61 165 
62 63 
62 64 
62 65 
62 75 
62 78 
62 86 
62 88 
62 98 
62 101 
62 110 
62 114 
62 122 
62 127 
62 134 
62 140 
62 146 
62 153 
62 158 
62 166 
63 64 
63 65 
63 68 
63 76 
63 80 
63 89 
63 92 
63 102 
63 112 
63 115 
63 128 
63 130 
63 140 
63 141 
63 147 
63 154 
63 167 
63 168 
64 65 
64 70 
64 77 
64 88 
64 90 
64 100 
64 103 
64 116 
64 117 
64 124 
64 129 
64 131 
64 142 
64 154 
64 155 
64 160 
64 168 
65 77 
65 78 
65 85 
65 91 
65 96 
65 104 
65 113 
65 117 
65 121 
65 130 
65 132 
65 143 
65 144 
65 156 
65 162 
65 169 
66 67 
66 68 
66 69 
66 70 
66 71 
66 72 
66 73 
66 74 
66 75 
66 76 
66 77 
66 78 
66 79 
66 90 
66 92 
66 95 
66 105 
66 107 
66 118 
66 119 
66 131 
66 137 
66 144 
66 149 
66 157 
66 169 
67 68 
67 69 
67 70 
67 71 
67 72 
67 73 
67 74 
67 75 
67 76 
67 77 
67 78 
67 80 
67 89 
67 93 
67 99 
67 106 
67 114 
67 119 
67 129 
67 132 
67 133 
67 145 
67 148 
67 157 
67 158 
68 69 
68 70 
68 71 
68 72 
68 73 
68 74 
68 75 
68 76 
68 77 
68 78 
68 80 
68 81 
68 92 
68 94 
68 107 
68 112 
68 120 
68 130 
68 133 
68 140 
68 146 
68 147 
68 159 
68 168 
69 70 
69 71 
69 72 
69 73 
69 74 
69 75 
69 76 
69 77 
69 78 
69 79 
69 82 
69 95 
69 104 
69 108 
69 116 
69 120 
69 121 
69 134 
69 139 
69 147 
69 150 
69 160 
69 164 
70 71 
70 72 
70 73 
70 74 
70 75 
70 76 
70 77 
70 78 
70 83 
70 88 
70 96 
70 100 
70 109 
70 117 
70 122 
70 124 
70 131 
70 135 
70 148 
70 154 
70 160 
70 161 
71 72 
71 73 
71 74 
71 75 
71 76 
71 77 
71 78 
71 84 
71 91 
71 97 
71 102 
71 106 
71 110 
71 123 
71 126 
71 136 
71 138 
71 149 
71 155 
71 162 
71 166 
72 73 
72 74 
72 75 
72 76 
72 77 
72 78 
72 84 
72 85 
72 94 
72 98 
72 108 
72 111 
72 124 
72 128 
72 137 
72 142 
72 150 
72 153 
72 161 
72 163 
73 74 
73 75 
73 76 
73 77 
73 78 
73 83 
73 86 
73 99 
73 103 
73 105 
73 112 
73 125 
73 127 
73 138 
73 141 
73 151 
73 152 
73 163 
73 164 
74 75 
74 76 
74 77 
74 78 
74 81 
74 87 
74 93 
74 100 
74 109 
74 113 
74 125 
74 126 
74 136 
74 139 
74 152 
74 156 
74 165 
74 167 
75 76 
75 77 
75 78 
75 82 
75 88 
75 97 
75 101 
75 114 
75 115 
75 118 
75 127 
75 140 
75 143 
75 145 
75 153 
75 165 
75 166 
76 77 
76 78 
76 87 
76 89 
76 101 
76 102 
76 111 
76 115 
76 123 
76 128 
76 135 
76 141 
76 151 
76 154 
76 159 
76 167 
77 78 
77 85 
77 90 
77 96 
77 103 
77 113 
77 116 
77 121 
77 129 
77 132 
77 142 
77 144 
77 155 
77 162 
77 168 
78 86 
78 91 
78 98 
78 104 
78 110 
78 117 
78 122 
78 130 
78 134 
78 143 
78 146 
78 156 
78 158 
78 169 
79 80 
79 81 
79 82 
79 83 
79 84 
79 85 
79 86 
79 87 
79 88 
79 89 
79 90 
79 91 
79 92 
79 104 
79 105 
79 116 
79 118 
79 120 
79 131 
79 139 
79 144 
79 150 
79 157 
79 164 
80 81 
80 82 
80 83 
80 84 
80 85 
80 86 
80 87 
80 88 
80 89 
80 90 
80 91 
80 92 
80 93 
80 106 
80 112 
80 119 
80 130 
80 132 
80 140 
80 145 
80 147 
80 158 
80 168 
81 82 
81 83 
81 84 
81 85 
81 86 
81 87 
81 88 
81 89 
81 90 
81 91 
81 93 
81 94 
81 107 
81 109 
81 120 
81 125 
81 133 
81 136 
81 146 
81 156 
81 159 
81 167 
82 83 
82 84 
82 85 
82 86 
82 87 
82 88 
82 89 
82 90 
82 91 
82 95 
82 97 
82 108 
82 115 
82 118 
82 121 
82 134 
82 143 
82 145 
82 147 
82 160 
82 165 
83 84 
83 85 
83 86 
83 87 
83 88 
83 89 
83 90 
83 91 
83 96 
83 103 
83 105 
83 109 
83 122 
83 127 
83 135 
83 141 
83 148 
83 152 
83 161 
83 163 
84 85 
84 86 
84 87 
84 88 
84 89 
84 90 
84 91 
84 94 
84 97 
84 108 
84 110 
84 123 
84 128 
84 136 
84 142 
84 149 
84 153 
84 161 
84 162 
85 86 
85 87 
85 88 
85 89 
85 90 
85 91 
85 96 
85 98 
85 111 
85 113 
85 121 
85 124 
85 132 
85 137 
85 144 
85 150 
85 162 
85 163 
86 87 
86 88 
86 89 
86 90 
86 91 
86 98 
86 99 
86 110 
86 112 
86 122 
86 125 
86 134 
86 138 
86 146 
86 151 
86 158 
86 164 
87 88 
87 89 
87 90 
87 91 
87 100 
87 101 
87 111 
87 113 
87 123 
87 126 
87 135 
87 139 
87 151 
87 152 
87 159 
87 165 
88 89 
88 90 
88 91 
88 100 
88 101 
88 114 
88 117 
88 124 
88 127 
88 131 
88 140 
88 153 
88 154 
88 160 
88 166 
89 90 
89 91 
89 99 
89 102 
89 114 
89 115 
89 128 
89 129 
89 133 
89 141 
89 148 
89 154 
89 157 
89 167 
90 91 
90 95 
90 103 
90 107 
90 116 
90 119 
90 129 
90 137 
90 142 
90 149 
90 155 
90 168 
90 169 
91 102 
91 104 
91 106 
91 117 
91 126 
91 130 
91 138 
91 143 
91 155 
91 156 
91 166 
91 169 
92 93 
92 94 
92 95 
92 96 
92 97 
92 98 
92 99 
92 100 
92 101 
92 102 
92 103 
92 104 
92 105 
92 112 
92 118 
92 130 
92 131 
92 140 
92 144 
92 147 
92 157 
92 168 
93 94 
93 95 
93 96 
93 97 
93 98 
93 99 
93 100 
93 101 
93 102 
93 103 
93 104 
93 106 
93 109 
93 119 
93 125 
93 132 
93 136 
93 145 
93 156 
93 158 
93 167 
94 95 
94 96 
94 97 
94 98 
94 99 
94 100 
94 101 
94 102 
94 103 
94 104 
94 107 
94 108 
94 120 
94 128 
94 133 
94 142 
94 146 
94 153 
94 159 
94 161 
95 96 
95 97 
95 98 
95 99 
95 100 
95 101 
95 102 
95 103 
95 104 
95 107 
95 108 
95 119 
95 121 
95 134 
95 137 
95 147 
95 149 
95 160 
95 169 
96 97 
96 98 
96 99 
96 100 
96 101 
96 102 
96 103 
96 104 
96 109 
96 113 
96 121 
96 122 
96 132 
96 135 
96 144 
96 148 
96 161 
96 162 
97 98 
97 99 
97 100 
97 101 
97 102 
97 103 
97 104 
97 110 
97 115 
97 118 
97 123 
97 136 
97 143 
97 145 
97 149 
97 162 
97 165 
98 99 
98 100 
98 101 
98 102 
98 103 
98 104 
98 110 
98 111 
98 122 
98 124 
98 134 
98 137 
98 146 
98 150 
98 158 
98 163 
99 100 
99 101 
99 102 
99 103 
99 104 
99 112 
99 114 
99 125 
99 129 
99 133 
99 138 
99 148 
99 151 
99 157 
99 164 
100 101 
100 102 
100 103 
100 104 
100 113 
100 117 
100 124 
100 126 
100 131 
100 139 
100 152 
100 154 
100 160 
100 165 
101 102 
101 103 
101 104 
101 111 
101 114 
101 123 
101 127 
101 135 
101 140 
101 151 
101 153 
101 159 
101 166 
102 103 
102 104 
102 106 
102 115 
102 126 
102 128 
102 138 
102 141 
102 154 
102 155 
102 166 
102 167 
103 104 
103 105 
103 116 
103 127 
103 129 
103 141 
103 142 
103 152 
103 155 
103 163 
103 168 
104 116 
104 117 
104 120 
104 130 
104 139 
104 143 
104 150 
104 156 
104 164 
104 169 
105 106 
105 107 
105 108 
105 109 
105 110 
105 111 
105 112 
105 113 
105 114 
105 115 
105 116 
105 117 
105 118 
105 127 
105 131 
105 141 
105 144 
105 152 
105 157 
105 163 
106 107 
106 108 
106 109 
106 110 
106 111 
106 112 
106 113 
106 114 
106 115 
106 116 
106 117 
106 119 
106 126 
106 132 
106 138 
106 145 
106 155 
106 158 
106 166 
107 108 
107 109 
107 110 
107 111 
107 112 
107 113 
107 114 
107 115 
107 116 
107 117 
107 119 
107 120 
107 133 
107 137 
107 146 
107 149 
107 159 
107 169 
108 109 
108 110 
108 111 
108 112 
108 113 
108 114 
108 115 
108 116 
108 117 
108 121 
108 128 
108 134 
108 142 
108 147 
108 153 
108 160 
108 161 
109 110 
109 111 
109 112 
109 113 
109 114 
109 115 
109 116 
109 117 
109 122 
109 125 
109 135 
109 136 
109 148 
109 156 
109 161 
109 167 
110 111 
110 112 
110 113 
110 114 
110 115 
110 116 
110 117 
110 122 
110 123 
110 134 
110 136 
110 146 
110 149 
110 158 
110 162 
111 112 
111 113 
111 114 
111 115 
111 116 
111 117 
111 123 
111 124 
111 135 
111 137 
111 150 
111 151 
111 159 
111 163 
112 113 
112 114 
112 115 
112 116 
112 117 
112 125 
112 130 
112 138 
112 140 
112 147 
112 151 
112 164 
112 168 
113 114 
113 115 
113 116 
113 117 
113 121 
113 126 
113 132 
113 139 
113 144 
113 152 
113 162 
113 165 
114 115 
114 116 
114 117 
114 127 
114 129 
114 133 
114 140 
114 148 
114 153 
114 157 
114 166 
115 116 
115 117 
115 118 
115 128 
115 141 
115 143 
115 145 
115 154 
115 165 
115 167 
116 117 
116 120 
116 129 
116 139 
116 142 
116 150 
116 155 
116 164 
116 168 
117 124 
117 130 
117 131 
117 143 
117 154 
117 156 
117 160 
117 169 
118 119 
118 120 
118 121 
118 122 
118 123 
118 124 
118 125 
118 126 
118 127 
118 128 
118 129 
118 130 
118 131 
118 143 
118 144 
118 145 
118 157 
118 165 
119 120 
119 121 
119 122 
119 123 
119 124 
119 125 
119 126 
119 127 
119 128 
119 129 
119 130 
119 132 
119 137 
119 145 
119 149 
119 158 
119 169 
120 121 
120 122 
120 123 
120 124 
120 125 
120 126 
120 127 
120 128 
120 129 
120 130 
120 133 
120 139 
120 146 
120 150 
120 159 
120 164 
121 122 
121 123 
121 124 
121 125 
121 126 
121 127 
121 128 
121 129 
121 130 
121 132 
121 134 
121 144 
121 147 
121 160 
121 162 
122 123 
122 124 
122 125 
122 126 
122 127 
122 128 
122 129 
122 130 
122 134 
122 135 
122 146 
122 148 
122 158 
122 161 
123 124 
123 125 
123 126 
123 127 
123 128 
123 129 
123 130 
123 135 
123 136 
123 149 
123 151 
123 159 
123 162 
124 125 
124 126 
124 127 
124 128 
124 129 
124 130 
124 131 
124 137 
124 150 
124 154 
124 160 
124 163 
125 126 
125 127 
125 128 
125 129 
125 130 
125 136 
125 138 
125 151 
125 156 
125 164 
125 167 
126 127 
126 128 
126 129 
126 130 
126 138 
126 139 
126 152 
126 155 
126 165 
126 166 
127 128 
127 129 
127 130 
127 140 
127 141 
127 152 
127 153 
127 163 
127 166 
128 129 
128 130 
128 141 
128 142 
128 153 
128 154 
128 161 
128 167 
129 130 
129 133 
129 142 
129 148 
129 155 
129 157 
129 168 
130 140 
130 143 
130 147 
130 156 
130 168 
130 169 
131 132 
131 133 
131 134 
131 135 
131 136 
131 137 
131 138 
131 139 
131 140 
131 141 
131 142 
131 143 
131 144 
131 154 
131 157 
131 160 
132 133 
132 134 
132 135 
132 136 
132 137 
132 138 
132 139 
132 140 
132 141 
132 142 
132 143 
132 144 
132 145 
132 158 
132 162 
133 134 
133 135 
133 136 
133 137 
133 138 
133 139 
133 140 
133 141 
133 142 
133 143 
133 146 
133 148 
133 157 
133 159 
134 135 
134 136 
134 137 
134 138 
134 139 
134 140 
134 141 
134 142 
134 143 
134 146 
134 147 
134 158 
134 160 
135 136 
135 137 
135 138 
135 139 
135 140 
135 141 
135 142 
135 143 
135 148 
135 151 
135 159 
135 161 
136 137 
136 138 
136 139 
136 140 
136 141 
136 142 
136 143 
136 149 
136 156 
136 162 
136 167 
137 138 
137 139 
137 140 
137 141 
137 142 
137 143 
137 149 
137 150 
137 163 
137 169 
138 139 
138 140 
138 141 
138 142 
138 143 
138 151 
138 155 
138 164 
138 166 
139 140 
139 141 
139 142 
139 143 
139 150 
139 152 
139 164 
139 165 
140 141 
140 142 
140 143 
140 147 
140 153 
140 166 
140 168 
141 142 
141 143 
141 152 
141 154 
141 163 
141 167 
142 143 
142 153 
142 155 
142 161 
142 168 
143 145 
143 156 
143 165 
143 169 
144 145 
144 146 
144 147 
144 148 
144 149 
144 150 
144 151 
144 152 
144 153 
144 154 
144 155 
144 156 
144 157 
144 162 
145 146 
145 147 
145 148 
145 149 
145 150 
145 151 
145 152 
145 153 
145 154 
145 155 
145 156 
145 158 
145 165 
146 147 
146 148 
146 149 
146 150 
146 151 
146 152 
146 153 
146 154 
146 155 
146 156 
146 158 
146 159 
147 148 
147 149 
147 150 
147 151 
147 152 
147 153 
147 154 
147 155 
147 156 
147 160 
147 168 
148 149 
148 150 
148 151 
148 152 
148 153 
148 154 
148 155 
148 156 
148 157 
148 161 
149 150 
149 151 
149 152 
149 153 
149 154 
149 155 
149 156 
149 162 
149 169 
150 151 
150 152 
150 153 
150 154 
150 155 
150 156 
150 163 
150 164 
151 152 
151 153 
151 154 
151 155 
151 156 
151 159 
151 164 
152 153 
152 154 
152 155 
152 156 
152 163 
152 165 
153 154 
153 155 
153 156 
153 161 
153 166 
154 155 
154 156 
154 160 
154 167 
155 156 
155 166 
155 168 
156 167 
156 169 
157 158 
157 159 
157 160 
157 161 
157 162 
157 163 
157 164 
157 165 
157 166 
157 167 
157 168 
157 169 
158 159 
158 160 
158 161 
158 162 
158 163 
158 164 
158 165 
158 166 
158 167 
158 168 
158 169 
159 160 
159 161 
159 162 
159 163 
159 164 
159 165 
159 166 
159 167 
159 168 
159 169 
160 161 
160 162 
160 163 
160 164 
160 165 
160 166 
160 167 
160 168 
160 169 
161 162 
161 163 
161 164 
161 165 
161 166 
161 167 
161 168 
161 169 
162 163 
162 164 
162 165 
162 166 
162 167 
162 168 
162 169 
163 164 
163 165 
163 166 
163 167 
163 168 
163 169 
164 165 
164 166 
164 167 
164 168 
164 169 
165 166 
165 167 
165 168 
165 169 
166 167 
166 168 
166 169 
167 168 
167 169 
168 169 
